p tw 48 52
1 2
2 13
3 4
4 5
4 11
5 6
6 7
7 8
8 9
9 10
10 18
11 12
12 14
13 24
14 15
15 16
16 17
17 18
18 19
19 20
20 21
21 22
21 29
22 23
23 25
23 29
24 35
25 26
26 27
27 28
28 44
29 30
30 31
31 32
32 33
32 38
33 34
34 36
34 38
35 44
36 37
37 40
38 39
39 40
40 41
41 42
42 43
44 45
45 46
46 47
47 48
48 3
